/*********************************************
 * OPL 12.8.0.0 Data
 * Author: guilherme
 * Creation Date: 23/03/2018 at 22:07:00
 *********************************************/

n = 5;

p = 3;

a = [ [0, 1, 1, 0, 0]
	  [1, 0, 1, 0, 0]
	  [1, 1, 0, 0, 0]
	  [0, 0, 0, 0, 1]
	  [0, 0, 0, 1, 0] ];